NAME          AFIRO
ROWS
 N  OBJ
 E  ROW00001
 E  ROW00002
 L  ROW00003
 L  ROW00004
 E  ROW00005
 E  ROW00006
 L  ROW00007
 L  ROW00008
 L  ROW00009
 L  ROW00010
 E  ROW00011
 E  ROW00012
 L  ROW00013
 L  ROW00014
 E  ROW00015
 E  ROW00016
 L  ROW00017
 L  ROW00018
 L  ROW00019
 L  ROW00020
 L  ROW00021
 L  ROW00022
 L  ROW00023
 L  ROW00024
 L  ROW00025
 L  ROW00026
 L  ROW00027
COLUMNS
    COL00002OBJ                         -0.4
    COL00013OBJ                        -0.32
    COL00017OBJ                         -0.6
    COL00029OBJ                        -0.48
RHS
    RHS1      ROW00003                    80.0ROW00013                   500.0
    RHS1      ROW00017                   500.0ROW00026                   310.0
BOUNDS
 UP BOUND      COL00001          +INF
 LO BOUND      COL00001             0
 UP BOUND      COL00002          +INF
 LO BOUND      COL00002             0
 UP BOUND      COL00003          +INF
 LO BOUND      COL00003             0
 UP BOUND      COL00004          +INF
 LO BOUND      COL00004             0
 UP BOUND      COL00005          +INF
 LO BOUND      COL00005             0
 UP BOUND      COL00006          +INF
 LO BOUND      COL00006             0
 UP BOUND      COL00007          +INF
 LO BOUND      COL00007             0
 UP BOUND      COL00008          +INF
 LO BOUND      COL00008             0
 UP BOUND      COL00009          +INF
 LO BOUND      COL00009             0
 UP BOUND      COL00010          +INF
 LO BOUND      COL00010             0
 UP BOUND      COL00011          +INF
 LO BOUND      COL00011             0
 UP BOUND      COL00012          +INF
 LO BOUND      COL00012             0
 UP BOUND      COL00013          +INF
 LO BOUND      COL00013             0
 UP BOUND      COL00014          +INF
 LO BOUND      COL00014             0
 UP BOUND      COL00015          +INF
 LO BOUND      COL00015             0
 UP BOUND      COL00016          +INF
 LO BOUND      COL00016             0
 UP BOUND      COL00017          +INF
 LO BOUND      COL00017             0
 UP BOUND      COL00018          +INF
 LO BOUND      COL00018             0
 UP BOUND      COL00019          +INF
 LO BOUND      COL00019             0
 UP BOUND      COL00020          +INF
 LO BOUND      COL00020             0
 UP BOUND      COL00021          +INF
 LO BOUND      COL00021             0
 UP BOUND      COL00022          +INF
 LO BOUND      COL00022             0
 UP BOUND      COL00023          +INF
 LO BOUND      COL00023             0
 UP BOUND      COL00024          +INF
 LO BOUND      COL00024             0
 UP BOUND      COL00025          +INF
 LO BOUND      COL00025             0
 UP BOUND      COL00026          +INF
 LO BOUND      COL00026             0
 UP BOUND      COL00027          +INF
 LO BOUND      COL00027             0
 UP BOUND      COL00028          +INF
 LO BOUND      COL00028             0
 UP BOUND      COL00029          +INF
 LO BOUND      COL00029             0
 UP BOUND      COL00030          +INF
 LO BOUND      COL00030             0
 UP BOUND      COL00031          +INF
 LO BOUND      COL00031             0
 UP BOUND      COL00032          +INF
 LO BOUND      COL00032             0
ENDATA
